NAME : anjos-75-02.-323.tour
COMMENT : Length = -323
COMMENT : Found by LKH [Keld Helsgaun] Sun Apr 13 17:05:01 2025
TYPE : TOUR
DIMENSION : 75
TOUR_SECTION
1
18
23
58
50
31
38
29
40
69
41
24
45
48
27
19
10
33
59
52
35
39
43
64
51
2
6
34
5
14
63
73
16
70
26
22
3
65
36
7
46
4
53
15
17
68
9
11
8
67
71
47
49
42
13
25
55
37
54
30
74
60
61
56
12
57
62
32
20
44
21
66
72
75
28
-1
EOF
